unsat
((set-logic NIA)
(declare-fun z!1 () Int)
(declare-fun y!2 () Int)
(declare-fun x!3 () Int)
(declare-fun n!0 () Int)
(proof
(let ((?x422 (* (- 6) z!1)))
 (let ((?x1118 (* z!1 z!1)))
 (let ((?x775 (* (- 12) y!2)))
 (let ((?x285 (* z00 z00)))
 (let ((?x286 (* (- 1) ?x285)))
 (let ((?x43 (* 12 y00)))
 (let ((?x49 (* 6 z00)))
 (let ((?x705 (+ ?x49 ?x43 ?x286 ?x775 ?x1118 ?x422)))
 (let (($x315 (<= ?x705 0)))
 (let (($x611 (= ?x705 0)))
 (let ((?x1129 (* x!3 y!2)))
 (let ((?x1110 (* 2 ?x1129)))
 (let ((?x1117 (+ x!3 y!2)))
 (let ((?x936 (+ y!2 z!1)))
 (let ((?x1261 (+ 6 z!1)))
 (let ((?x1200 (* (- 1) (* ?x1261 ?x1261 ?x1261 ?x936 ?x936 ?x1117 ?x1117 ?x1117))))
 (let ((?x740 (* x!3 x!3)))
 (let ((?x507 (* y!2 y!2)))
 (let ((?x1192 (* (+ ?x507 ?x740 ?x1200 ?x1110) ?x705)))
 (let (($x307 (= ?x1192 0)))
 (let (($x723 (not $x307)))
 (let ((?x670 (* z00 z00 y00 y00)))
 (let ((?x458 (+ (* 6 (* z00 y!2 y!2)) (* (- 18) (* z00 z00 x!3)) (* (- 216) (* y00 x00)) (* (- 24) (* z00 y00)) (* z00 z00 z00 y!2) (* (- 36) (* z00 x00)) (* (- 96) (* y00 y00)) (* (- 24) ?x507) (* 12 (* z00 y00 y00)) (* 10 (* z00 z00 y00)) ?x670 (* 24 (* z00 y!2)) (* (- 108) ?x740) (* 2 (* z00 z00 z00 x!3)) (* 18 (* z00 z00 x00)) (* 120 (* y00 y!2)) (* (- 1) (* z00 z00 y!2 y!2)) (* (- 16) (* y00 y00 y00)) (* 216 (* y00 x!3)) (* 36 (* z00 x!3)) (* (- 18) (* z00 y00 y!2)) (* (- 10) (* z00 z00 y!2)) (* 36 (* z00 y00 x00)) (* (- 36) (* z00 y00 x!3)) (* 216 (* x00 x!3)) (* 12 (* y00 y!2 y!2)) (* (- 1) (* z00 z00 z00 y00)) (* (- 2) (* z00 z00 z00 x00)) (* (- 108) ?x1129) (* 4 (* y!2 y!2 y!2)) (* (- 108) (* x00 x00)) (* 108 (* x00 y!2)))))
 (let ((?x799 (* (- 18) (* x00 z!1))))
 (let ((?x958 (* z00 y00 y!2)))
 (let ((?x602 (* z00 y00 y00)))
 (let ((?x529 (* (- 72) y!2)))
 (let ((?x527 (* (- 108) x!3)))
 (let ((?x516 (* x!3 z!1)))
 (let ((?x240 (* 18 ?x516)))
 (let ((?x502 (* y!2 z!1)))
 (let ((?x242 (* 12 ?x502)))
 (let ((?x493 (* y00 y00)))
 (let ((?x697 (* 36 ?x493)))
 (let ((?x426 (* z00 y00)))
 (let ((?x542 (* 6 ?x426)))
 (let ((?x365 (* y00 z!1)))
 (let ((?x1199 (* (- 12) ?x365)))
 (let ((?x74 (* 108 x00)))
 (let ((?x67 (* 72 y00)))
 (let ((?x375 (+ ?x67 ?x74 (* (- 2) (* z00 y!2 y!2)) (* 3 (* z00 z00 x!3)) ?x1199 (* 18 (* y00 x00)) ?x542 ?x697 ?x242 ?x240 ?x527 ?x529 ?x602 (* (- 3) (* z00 z00 y00)) (* 3 (* z00 x!3 z!1)) (* (- 6) (* z00 y!2)) (* (- 3) (* z00 z00 x00)) (* (- 36) (* y00 y!2)) (* (- 3) (* z00 x00 z!1)) (* (- 18) (* y00 x!3)) ?x958 (* 3 (* z00 z00 y!2)) ?x799 (* (- 1) (* y00 y!2 z!1)) (* 18 ?x1129) (* (- 1) (* y!2 y!2 z!1)) (* (- 18) (* x00 y!2)) (* 2 (* y00 y00 z!1)))))
 (let ((?x997 (* z00 z00 y!2)))
 (let ((?x1114 (* 24 ?x493)))
 (let ((?x701 (* (- 6) ?x426)))
 (let ((?x800 (+ ?x67 ?x74 ?x1199 ?x701 (* z00 y00 z!1) (* (- 18) (* z00 x00)) (* (- 1) (* z00 y!2 z!1)) ?x1114 ?x242 (* (- 12) ?x507) ?x240 ?x527 ?x529 (* (- 1) (* z00 z00 y00)) (* 6 (* z00 y!2)) (* (- 12) (* y00 y!2)) (* 18 (* z00 x!3)) ?x997 ?x799)))
 (let ((?x1134 (* (- 6) ?x285)))
 (let ((?x55 (* z00 z00 z00)))
 (let ((?x1122 (+ ?x67 ?x55 ?x74 ?x1134 (* 12 ?x365) (* (- 18) ?x426) (* 6 ?x502) ?x527 ?x529 (* 6 (* z00 z!1)) (* (- 1) (* z00 z00 z!1)))))
 (let (($x301 (and (= (+ z00 (* (- 6) n00) (* 6 n!0) (* (- 1) z!1)) 0) $x611 (= ?x1122 0) (= ?x800 0) (= ?x375 0) (= ?x458 0) $x723)))
 (let (($x341 (= (* (+ ?x1110 ?x507 ?x740 ?x1200) (+ ?x775 ?x422 ?x49 ?x43 ?x1118 ?x286)) 0)))
 (let ((?x1210 (* x00 x00)))
 (let ((?x1211 (* 108 ?x1210)))
 (let ((?x1107 (* z00 z00 z00 x00)))
 (let ((?x1108 (* 2 ?x1107)))
 (let ((?x1104 (* z00 z00 z00 y00)))
 (let ((?x1001 (* z00 y00 x00)))
 (let ((?x1014 (* (- 36) ?x1001)))
 (let ((?x898 (* y00 y00 y00)))
 (let ((?x899 (* 16 ?x898)))
 (let ((?x813 (* z00 z00 x00)))
 (let ((?x1064 (* (- 18) ?x813)))
 (let ((?x685 (* (- 1) ?x670)))
 (let ((?x627 (* z00 z00 y00)))
 (let ((?x1165 (* (- 10) ?x627)))
 (let ((?x637 (* (- 12) ?x602)))
 (let ((?x964 (* 96 ?x493)))
 (let ((?x463 (* z00 x00)))
 (let ((?x381 (* 36 ?x463)))
 (let ((?x791 (* 24 ?x426)))
 (let ((?x373 (* y00 x00)))
 (let ((?x364 (* 216 ?x373)))
 (let ((?x792 (+ (* 10 (* y!2 z00 z00)) (* y!2 y!2 z00 z00) (* (- 1) (* y!2 z00 z00 z00)) ?x364 (* (- 2) (* x!3 z00 z00 z00)) (* 108 ?x1129) ?x791 ?x381 (* 24 ?x507) ?x964 (* (- 120) (* y!2 y00)) (* 18 (* x!3 z00 z00)) (* (- 24) (* y!2 z00)) ?x637 ?x1165 (* (- 36) (* x!3 z00)) (* 18 (* y!2 z00 y00)) ?x685 (* 108 ?x740) (* (- 4) (* y!2 y!2 y!2)) (* (- 6) (* y!2 y!2 z00)) (* (- 108) (* y!2 x00)) ?x1064 (* (- 216) (* x!3 y00)) ?x899 (* (- 12) (* y!2 y!2 y00)) ?x1014 (* (- 216) (* x!3 x00)) ?x1104 ?x1108 (* 36 (* x!3 z00 y00)) ?x1211)))
 (let ((?x814 (* 3 ?x813)))
 (let ((?x876 (* 3 ?x627)))
 (let ((?x609 (* (- 1) ?x602)))
 (let ((?x996 (* 18 (* z!1 x00))))
 (let ((?x796 (* (- 36) ?x493)))
 (let ((?x739 (* z!1 y00)))
 (let ((?x518 (* 12 ?x739)))
 (let ((?x517 (* (- 18) ?x516)))
 (let ((?x374 (* (- 18) ?x373)))
 (let ((?x519 (* (- 12) ?x502)))
 (let ((?x1149 (* y!2 y!2 z!1)))
 (let ((?x505 (* (- 108) x00)))
 (let ((?x448 (* (- 72) y00)))
 (let ((?x1123 (* 72 y!2)))
 (let ((?x1094 (* 108 x!3)))
 (let ((?x403 (+ ?x1094 ?x1123 ?x448 ?x505 (* (- 3) (* y!2 z00 z00)) ?x1149 ?x519 ?x374 (* (- 18) ?x1129) ?x517 ?x518 ?x701 ?x796 ?x996 (* 36 (* y!2 y00)) (* (- 3) (* x!3 z00 z00)) (* 6 (* y!2 z00)) ?x609 ?x876 (* 3 (* z!1 z00 x00)) (* (- 1) (* y!2 z00 y00)) (* (- 3) (* x!3 z!1 z00)) (* 2 (* y!2 y!2 z00)) (* 18 (* y!2 x00)) ?x814 (* 18 (* x!3 y00)) (* y!2 z!1 y00) (* (- 2) (* z!1 y00 y00)))))
 (let ((?x522 (* (- 24) ?x493)))
 (let ((?x464 (* 18 ?x463)))
 (let ((?x263 (+ ?x1094 ?x1123 ?x448 ?x505 (* y!2 z!1 z00) (* (- 1) (* y!2 z00 z00)) (* (- 1) (* z!1 z00 y00)) ?x519 ?x517 ?x518 ?x542 ?x464 (* 12 ?x507) ?x522 ?x996 (* 12 (* y!2 y00)) (* (- 6) (* y!2 z00)) ?x627 (* (- 18) (* x!3 z00)))))
 (let ((?x427 (* 18 ?x426)))
 (let ((?x389 (* 6 ?x285)))
 (let ((?x378 (* (- 1) ?x55)))
 (let ((?x581 (+ ?x1094 ?x1123 ?x448 ?x378 ?x505 (* z!1 z00 z00) ?x389 (* (- 6) ?x502) (* (- 12) ?x739) ?x427 (* (- 6) (* z!1 z00)))))
 (let ((?x356 (* (- 12) y00)))
 (let ((?x355 (* (- 6) z00)))
 (let (($x864 (= (+ (* 12 y!2) (* 6 z!1) ?x355 ?x356 (* (- 1) ?x1118) ?x285) 0)))
 (let (($x438 (and (= (+ z!1 (* (- 6) n!0) (* (- 1) z00) (* 6 n00)) 0) $x864 (= ?x581 0) (= ?x263 0) (= ?x403 0) (= ?x792 0) (not $x341))))
 (let (($x579 (exists ((x Int) (y Int) (z Int) (n Int) )(! (let ((?x285 (* z00 z00)))
 (let ((?x286 (* (- 1) ?x285)))
 (let ((?x50 (* z z)))
 (let ((?x43 (* 12 y00)))
 (let ((?x49 (* 6 z00)))
 (let ((?x331 (* (- 6) z)))
 (let ((?x309 (* (- 12) y)))
 (let ((?x347 (+ ?x309 ?x331 ?x49 ?x43 ?x50 ?x286)))
 (let ((?x223 (+ x y)))
 (let ((?x215 (+ y z)))
 (let ((?x674 (+ 6 z)))
 (let ((?x1073 (* (- 1) (* ?x674 ?x674 ?x674 ?x215 ?x215 ?x223 ?x223 ?x223))))
 (let ((?x716 (* x x)))
 (let ((?x467 (* y y)))
 (let ((?x390 (* x y)))
 (let ((?x1268 (* 2 ?x390)))
 (let ((?x1210 (* x00 x00)))
 (let ((?x1211 (* 108 ?x1210)))
 (let ((?x1107 (* z00 z00 z00 x00)))
 (let ((?x1108 (* 2 ?x1107)))
 (let ((?x1104 (* z00 z00 z00 y00)))
 (let ((?x1001 (* z00 y00 x00)))
 (let ((?x1014 (* (- 36) ?x1001)))
 (let ((?x898 (* y00 y00 y00)))
 (let ((?x899 (* 16 ?x898)))
 (let ((?x813 (* z00 z00 x00)))
 (let ((?x1064 (* (- 18) ?x813)))
 (let ((?x769 (* (- 4) (* y y y))))
 (let ((?x717 (* 108 ?x716)))
 (let ((?x670 (* z00 z00 y00 y00)))
 (let ((?x685 (* (- 1) ?x670)))
 (let ((?x627 (* z00 z00 y00)))
 (let ((?x1165 (* (- 10) ?x627)))
 (let ((?x602 (* z00 y00 y00)))
 (let ((?x637 (* (- 12) ?x602)))
 (let ((?x493 (* y00 y00)))
 (let ((?x964 (* 96 ?x493)))
 (let ((?x712 (* 24 ?x467)))
 (let ((?x463 (* z00 x00)))
 (let ((?x381 (* 36 ?x463)))
 (let ((?x426 (* z00 y00)))
 (let ((?x791 (* 24 ?x426)))
 (let ((?x373 (* y00 x00)))
 (let ((?x364 (* 216 ?x373)))
 (let ((?x201 (* y y z00 z00)))
 (let ((?x1231 (+ (* 10 (* y z00 z00)) ?x201 (* (- 1) (* y z00 z00 z00)) ?x364 (* (- 2) (* x z00 z00 z00)) (* 108 ?x390) ?x791 ?x381 ?x712 ?x964 (* (- 120) (* y y00)) (* 18 (* x z00 z00)) (* (- 24) (* y z00)) ?x637 ?x1165 (* (- 36) (* x z00)) (* 18 (* y z00 y00)) ?x685 ?x717 ?x769 (* (- 6) (* y y z00)) (* (- 108) (* y x00)) ?x1064 (* (- 216) (* x y00)) ?x899 (* (- 12) (* y y y00)) ?x1014 (* (- 216) (* x x00)) ?x1104 ?x1108 (* 36 (* x z00 y00)) ?x1211)))
 (let (($x1236 (= ?x1231 0)))
 (let ((?x814 (* 3 ?x813)))
 (let ((?x876 (* 3 ?x627)))
 (let ((?x609 (* (- 1) ?x602)))
 (let ((?x539 (* 18 (* z x00))))
 (let ((?x796 (* (- 36) ?x493)))
 (let ((?x701 (* (- 6) ?x426)))
 (let ((?x400 (* z y00)))
 (let ((?x401 (* 12 ?x400)))
 (let ((?x434 (* (- 18) (* x z))))
 (let ((?x374 (* (- 18) ?x373)))
 (let ((?x369 (* y z)))
 (let ((?x393 (* (- 12) ?x369)))
 (let ((?x135 (* y y z)))
 (let ((?x505 (* (- 108) x00)))
 (let ((?x448 (* (- 72) y00)))
 (let ((?x71 (* 72 y)))
 (let ((?x64 (* 108 x)))
 (let ((?x932 (+ ?x64 ?x71 ?x448 ?x505 (* (- 3) (* y z00 z00)) ?x135 ?x393 ?x374 (* (- 18) ?x390) ?x434 ?x401 ?x701 ?x796 ?x539 (* 36 (* y y00)) (* (- 3) (* x z00 z00)) (* 6 (* y z00)) ?x609 ?x876 (* 3 (* z z00 x00)) (* (- 1) (* y z00 y00)) (* (- 3) (* x z z00)) (* 2 (* y y z00)) (* 18 (* y x00)) ?x814 (* 18 (* x y00)) (* y z y00) (* (- 2) (* z y00 y00)))))
 (let (($x939 (= ?x932 0)))
 (let ((?x522 (* (- 24) ?x493)))
 (let ((?x470 (* 12 ?x467)))
 (let ((?x464 (* 18 ?x463)))
 (let ((?x542 (* 6 ?x426)))
 (let ((?x103 (* y z z00)))
 (let ((?x681 (+ ?x64 ?x71 ?x448 ?x505 ?x103 (* (- 1) (* y z00 z00)) (* (- 1) (* z z00 y00)) ?x393 ?x434 ?x401 ?x542 ?x464 ?x470 ?x522 ?x539 (* 12 (* y y00)) (* (- 6) (* y z00)) ?x627 (* (- 18) (* x z00)))))
 (let (($x686 (= ?x681 0)))
 (let ((?x427 (* 18 ?x426)))
 (let ((?x389 (* 6 ?x285)))
 (let ((?x76 (* z z00 z00)))
 (let ((?x55 (* z00 z00 z00)))
 (let ((?x378 (* (- 1) ?x55)))
 (let ((?x521 (+ ?x64 ?x71 ?x448 ?x378 ?x505 ?x76 ?x389 (* (- 6) ?x369) (* (- 12) ?x400) ?x427 (* (- 6) (* z z00)))))
 (let (($x526 (= ?x521 0)))
 (let ((?x357 (* (- 1) ?x50)))
 (let ((?x356 (* (- 12) y00)))
 (let ((?x355 (* (- 6) z00)))
 (let ((?x46 (* 6 z)))
 (let ((?x45 (* 12 y)))
 (let (($x359 (= (+ ?x45 ?x46 ?x355 ?x356 ?x357 ?x285) 0)))
 (let (($x277 (= (+ z (* (- 6) n) (* (- 1) z00) (* 6 n00)) 0)))
 (and $x277 $x359 $x526 $x686 $x939 $x1236 (not (= (* (+ ?x1268 ?x467 ?x716 ?x1073) ?x347) 0)))))))))))))))))))))))))))))))))))))))))))))))))))))))))))))))))))))))))))))))))))))))))) :qid k!38))
 ))
 (let (($x349 (exists ((x Int) (y Int) (z Int) (n Int) )(! (let ((?x49 (* 6 z00)))
 (let ((?x309 (* (- 12) y)))
 (let ((?x43 (* 12 y00)))
 (let ((?x285 (* z00 z00)))
 (let ((?x286 (* (- 1) ?x285)))
 (let ((?x1263 (+ (- 36) ?x286 ?x43 ?x309 (* (- 18) z) ?x49 (* (+ 6 z) (+ 6 z)))))
 (let ((?x223 (+ x y)))
 (let ((?x225 (* ?x223 ?x223)))
 (let ((?x215 (+ y z)))
 (let ((?x674 (+ 6 z)))
 (let ((?x1073 (* (- 1) (* ?x674 ?x674 ?x674 ?x215 ?x215 ?x223 ?x223 ?x223))))
 (let (($x1070 (not (= (* (+ ?x1073 ?x225) ?x1263) 0))))
 (let ((?x1210 (* x00 x00)))
 (let ((?x1211 (* 108 ?x1210)))
 (let ((?x196 (* y00 z00 z00 z00)))
 (let ((?x493 (* y00 y00)))
 (let ((?x964 (* 96 ?x493)))
 (let ((?x898 (* y00 y00 y00)))
 (let ((?x899 (* 16 ?x898)))
 (let ((?x769 (* (- 4) (* y y y))))
 (let ((?x716 (* x x)))
 (let ((?x717 (* 108 ?x716)))
 (let ((?x467 (* y y)))
 (let ((?x712 (* 24 ?x467)))
 (let ((?x1289 (+ (* 216 (* x00 y00)) (* 108 (* y x)) (* 36 (* x00 z00)) (* (- 2) (* z00 z00 z00 x)) (* 18 (* z00 z00 x)) (* (- 12) (* y00 y00 z00)) (* (- 1) (* y00 y00 z00 z00)) ?x712 ?x717 ?x769 (* 18 (* y00 z00 y)) (* 24 (* y00 z00)) (* (- 120) (* y00 y)) (* (- 24) (* z00 y)) ?x899 (* (- 6) (* z00 y y)) ?x964 (* (- 12) (* y00 y y)) (* (- 36) (* x00 y00 z00)) (* (- 108) (* x00 y)) (* (- 18) (* x00 z00 z00)) (* (- 216) (* x00 x)) ?x196 (* 2 (* x00 z00 z00 z00)) (* (- 216) (* y00 x)) (* z00 z00 y y) (* (- 10) (* y00 z00 z00)) (* (- 36) (* z00 x)) (* 36 (* y00 z00 x)) (* 10 (* z00 z00 y)) ?x1211 (* (- 1) (* z00 z00 z00 y)))))
 (let (($x1294 (= ?x1289 0)))
 (let ((?x74 (* 108 x00)))
 (let ((?x861 (* (- 72) y)))
 (let ((?x67 (* 72 y00)))
 (let ((?x860 (* (- 108) x)))
 (let ((?x440 (* x00 z)))
 (let ((?x1139 (* (- 18) ?x440)))
 (let ((?x697 (* 36 ?x493)))
 (let ((?x607 (* z y)))
 (let ((?x553 (* 12 ?x607)))
 (let ((?x338 (* z00 y)))
 (let ((?x284 (* (- 6) ?x338)))
 (let ((?x805 (* y00 z00)))
 (let ((?x446 (* 6 ?x805)))
 (let ((?x568 (* y00 z)))
 (let ((?x397 (* (- 12) ?x568)))
 (let ((?x846 (* y00 z00 y)))
 (let ((?x113 (* y00 y00 z00)))
 (let ((?x594 (* z x)))
 (let ((?x1141 (* 18 ?x594)))
 (let ((?x361 (+ (* 18 (* x00 y00)) (* 18 (* y x)) ?x1141 (* 3 (* z00 z00 x)) ?x113 (* (- 3) (* x00 z00 z)) ?x846 ?x397 ?x446 (* (- 36) (* y00 y)) ?x284 ?x553 (* 3 (* z00 z x)) (* (- 2) (* z00 y y)) ?x697 ?x1139 (* (- 1) (* z y y)) (* (- 18) (* x00 y)) (* (- 3) (* x00 z00 z00)) ?x860 ?x67 (* (- 18) (* y00 x)) ?x861 ?x74 (* (- 1) (* y00 z y)) (* (- 3) (* y00 z00 z00)) (* 2 (* y00 y00 z)) (* 3 (* z00 z00 y)))))
 (let ((?x1084 (* z00 z00 y)))
 (let ((?x339 (* 6 ?x338)))
 (let ((?x735 (* (- 6) ?x805)))
 (let ((?x1114 (* 24 ?x493)))
 (let ((?x534 (* y00 z00 z)))
 (let ((?x732 (+ ?x534 ?x553 ?x1141 (* (- 18) (* x00 z00)) (* (- 12) ?x467) ?x1114 ?x1139 ?x397 ?x735 (* (- 12) (* y00 y)) ?x860 ?x67 ?x339 ?x861 ?x74 (* (- 1) (* y00 z00 z00)) (* 18 (* z00 x)) (* (- 1) (* z00 z y)) ?x1084)))
 (let ((?x583 (* 12 ?x568)))
 (let ((?x1134 (* (- 6) ?x285)))
 (let ((?x55 (* z00 z00 z00)))
 (let ((?x878 (+ (* 6 ?x607) ?x55 ?x1134 ?x583 (* (- 18) ?x805) ?x860 ?x67 (* 6 (* z00 z)) ?x861 ?x74 (* (- 1) (* z00 z00 z)))))
 (let ((?x50 (* z z)))
 (let ((?x357 (* (- 1) ?x50)))
 (let ((?x355 (* (- 6) z00)))
 (let ((?x46 (* 6 z)))
 (let ((?x45 (* 12 y)))
 (let ((?x356 (* (- 12) y00)))
 (and (= (+ z (* (- 1) z00) (* (- 6) n) (* 6 n00)) 0) (= (+ ?x285 ?x356 ?x45 ?x46 ?x355 ?x357) 0) (= ?x878 0) (= ?x732 0) (= ?x361 0) $x1294 $x1070))))))))))))))))))))))))))))))))))))))))))))))))))))))))))))))) :qid k!38))
 ))
 (let ((?x580 (lambda ((x Int) (y Int) (z Int) (n Int) )(let ((?x285 (* z00 z00)))
 (let ((?x286 (* (- 1) ?x285)))
 (let ((?x50 (* z z)))
 (let ((?x43 (* 12 y00)))
 (let ((?x49 (* 6 z00)))
 (let ((?x331 (* (- 6) z)))
 (let ((?x309 (* (- 12) y)))
 (let ((?x347 (+ ?x309 ?x331 ?x49 ?x43 ?x50 ?x286)))
 (let ((?x223 (+ x y)))
 (let ((?x215 (+ y z)))
 (let ((?x674 (+ 6 z)))
 (let ((?x1073 (* (- 1) (* ?x674 ?x674 ?x674 ?x215 ?x215 ?x223 ?x223 ?x223))))
 (let ((?x716 (* x x)))
 (let ((?x467 (* y y)))
 (let ((?x390 (* x y)))
 (let ((?x1268 (* 2 ?x390)))
 (let ((?x1210 (* x00 x00)))
 (let ((?x1211 (* 108 ?x1210)))
 (let ((?x1107 (* z00 z00 z00 x00)))
 (let ((?x1108 (* 2 ?x1107)))
 (let ((?x1104 (* z00 z00 z00 y00)))
 (let ((?x1001 (* z00 y00 x00)))
 (let ((?x1014 (* (- 36) ?x1001)))
 (let ((?x898 (* y00 y00 y00)))
 (let ((?x899 (* 16 ?x898)))
 (let ((?x813 (* z00 z00 x00)))
 (let ((?x1064 (* (- 18) ?x813)))
 (let ((?x769 (* (- 4) (* y y y))))
 (let ((?x717 (* 108 ?x716)))
 (let ((?x670 (* z00 z00 y00 y00)))
 (let ((?x685 (* (- 1) ?x670)))
 (let ((?x627 (* z00 z00 y00)))
 (let ((?x1165 (* (- 10) ?x627)))
 (let ((?x602 (* z00 y00 y00)))
 (let ((?x637 (* (- 12) ?x602)))
 (let ((?x493 (* y00 y00)))
 (let ((?x964 (* 96 ?x493)))
 (let ((?x712 (* 24 ?x467)))
 (let ((?x463 (* z00 x00)))
 (let ((?x381 (* 36 ?x463)))
 (let ((?x426 (* z00 y00)))
 (let ((?x791 (* 24 ?x426)))
 (let ((?x373 (* y00 x00)))
 (let ((?x364 (* 216 ?x373)))
 (let ((?x201 (* y y z00 z00)))
 (let ((?x1231 (+ (* 10 (* y z00 z00)) ?x201 (* (- 1) (* y z00 z00 z00)) ?x364 (* (- 2) (* x z00 z00 z00)) (* 108 ?x390) ?x791 ?x381 ?x712 ?x964 (* (- 120) (* y y00)) (* 18 (* x z00 z00)) (* (- 24) (* y z00)) ?x637 ?x1165 (* (- 36) (* x z00)) (* 18 (* y z00 y00)) ?x685 ?x717 ?x769 (* (- 6) (* y y z00)) (* (- 108) (* y x00)) ?x1064 (* (- 216) (* x y00)) ?x899 (* (- 12) (* y y y00)) ?x1014 (* (- 216) (* x x00)) ?x1104 ?x1108 (* 36 (* x z00 y00)) ?x1211)))
 (let (($x1236 (= ?x1231 0)))
 (let ((?x814 (* 3 ?x813)))
 (let ((?x876 (* 3 ?x627)))
 (let ((?x609 (* (- 1) ?x602)))
 (let ((?x539 (* 18 (* z x00))))
 (let ((?x796 (* (- 36) ?x493)))
 (let ((?x701 (* (- 6) ?x426)))
 (let ((?x400 (* z y00)))
 (let ((?x401 (* 12 ?x400)))
 (let ((?x434 (* (- 18) (* x z))))
 (let ((?x374 (* (- 18) ?x373)))
 (let ((?x369 (* y z)))
 (let ((?x393 (* (- 12) ?x369)))
 (let ((?x135 (* y y z)))
 (let ((?x505 (* (- 108) x00)))
 (let ((?x448 (* (- 72) y00)))
 (let ((?x71 (* 72 y)))
 (let ((?x64 (* 108 x)))
 (let ((?x932 (+ ?x64 ?x71 ?x448 ?x505 (* (- 3) (* y z00 z00)) ?x135 ?x393 ?x374 (* (- 18) ?x390) ?x434 ?x401 ?x701 ?x796 ?x539 (* 36 (* y y00)) (* (- 3) (* x z00 z00)) (* 6 (* y z00)) ?x609 ?x876 (* 3 (* z z00 x00)) (* (- 1) (* y z00 y00)) (* (- 3) (* x z z00)) (* 2 (* y y z00)) (* 18 (* y x00)) ?x814 (* 18 (* x y00)) (* y z y00) (* (- 2) (* z y00 y00)))))
 (let (($x939 (= ?x932 0)))
 (let ((?x522 (* (- 24) ?x493)))
 (let ((?x470 (* 12 ?x467)))
 (let ((?x464 (* 18 ?x463)))
 (let ((?x542 (* 6 ?x426)))
 (let ((?x103 (* y z z00)))
 (let ((?x681 (+ ?x64 ?x71 ?x448 ?x505 ?x103 (* (- 1) (* y z00 z00)) (* (- 1) (* z z00 y00)) ?x393 ?x434 ?x401 ?x542 ?x464 ?x470 ?x522 ?x539 (* 12 (* y y00)) (* (- 6) (* y z00)) ?x627 (* (- 18) (* x z00)))))
 (let (($x686 (= ?x681 0)))
 (let ((?x427 (* 18 ?x426)))
 (let ((?x389 (* 6 ?x285)))
 (let ((?x76 (* z z00 z00)))
 (let ((?x55 (* z00 z00 z00)))
 (let ((?x378 (* (- 1) ?x55)))
 (let ((?x521 (+ ?x64 ?x71 ?x448 ?x378 ?x505 ?x76 ?x389 (* (- 6) ?x369) (* (- 12) ?x400) ?x427 (* (- 6) (* z z00)))))
 (let (($x526 (= ?x521 0)))
 (let ((?x357 (* (- 1) ?x50)))
 (let ((?x356 (* (- 12) y00)))
 (let ((?x355 (* (- 6) z00)))
 (let ((?x46 (* 6 z)))
 (let ((?x45 (* 12 y)))
 (let (($x359 (= (+ ?x45 ?x46 ?x355 ?x356 ?x357 ?x285) 0)))
 (let (($x277 (= (+ z (* (- 6) n) (* (- 1) z00) (* 6 n00)) 0)))
 (let (($x1015 (and $x277 $x359 $x526 $x686 $x939 $x1236 (not (= (* (+ ?x1268 ?x467 ?x716 ?x1073) ?x347) 0)))))
 (let ((?x914 (* (+ ?x1073 (* ?x223 ?x223)) (+ (- 36) ?x286 ?x43 ?x309 (* (- 18) z) ?x49 (* ?x674 ?x674)))))
 (let (($x1070 (not (= ?x914 0))))
 (let ((?x196 (* y00 z00 z00 z00)))
 (let ((?x1289 (+ (* 216 (* x00 y00)) (* 108 (* y x)) (* 36 (* x00 z00)) (* (- 2) (* z00 z00 z00 x)) (* 18 (* z00 z00 x)) (* (- 12) (* y00 y00 z00)) (* (- 1) (* y00 y00 z00 z00)) ?x712 ?x717 ?x769 (* 18 (* y00 z00 y)) (* 24 (* y00 z00)) (* (- 120) (* y00 y)) (* (- 24) (* z00 y)) ?x899 (* (- 6) (* z00 y y)) ?x964 (* (- 12) (* y00 y y)) (* (- 36) (* x00 y00 z00)) (* (- 108) (* x00 y)) (* (- 18) (* x00 z00 z00)) (* (- 216) (* x00 x)) ?x196 (* 2 (* x00 z00 z00 z00)) (* (- 216) (* y00 x)) (* z00 z00 y y) (* (- 10) (* y00 z00 z00)) (* (- 36) (* z00 x)) (* 36 (* y00 z00 x)) (* 10 (* z00 z00 y)) ?x1211 (* (- 1) (* z00 z00 z00 y)))))
 (let (($x1294 (= ?x1289 0)))
 (let ((?x74 (* 108 x00)))
 (let ((?x861 (* (- 72) y)))
 (let ((?x67 (* 72 y00)))
 (let ((?x860 (* (- 108) x)))
 (let ((?x440 (* x00 z)))
 (let ((?x1139 (* (- 18) ?x440)))
 (let ((?x697 (* 36 ?x493)))
 (let ((?x607 (* z y)))
 (let ((?x553 (* 12 ?x607)))
 (let ((?x338 (* z00 y)))
 (let ((?x284 (* (- 6) ?x338)))
 (let ((?x805 (* y00 z00)))
 (let ((?x446 (* 6 ?x805)))
 (let ((?x568 (* y00 z)))
 (let ((?x397 (* (- 12) ?x568)))
 (let ((?x846 (* y00 z00 y)))
 (let ((?x113 (* y00 y00 z00)))
 (let ((?x594 (* z x)))
 (let ((?x1141 (* 18 ?x594)))
 (let ((?x361 (+ (* 18 (* x00 y00)) (* 18 (* y x)) ?x1141 (* 3 (* z00 z00 x)) ?x113 (* (- 3) (* x00 z00 z)) ?x846 ?x397 ?x446 (* (- 36) (* y00 y)) ?x284 ?x553 (* 3 (* z00 z x)) (* (- 2) (* z00 y y)) ?x697 ?x1139 (* (- 1) (* z y y)) (* (- 18) (* x00 y)) (* (- 3) (* x00 z00 z00)) ?x860 ?x67 (* (- 18) (* y00 x)) ?x861 ?x74 (* (- 1) (* y00 z y)) (* (- 3) (* y00 z00 z00)) (* 2 (* y00 y00 z)) (* 3 (* z00 z00 y)))))
 (let ((?x1084 (* z00 z00 y)))
 (let ((?x339 (* 6 ?x338)))
 (let ((?x735 (* (- 6) ?x805)))
 (let ((?x1114 (* 24 ?x493)))
 (let ((?x534 (* y00 z00 z)))
 (let ((?x732 (+ ?x534 ?x553 ?x1141 (* (- 18) (* x00 z00)) (* (- 12) ?x467) ?x1114 ?x1139 ?x397 ?x735 (* (- 12) (* y00 y)) ?x860 ?x67 ?x339 ?x861 ?x74 (* (- 1) (* y00 z00 z00)) (* 18 (* z00 x)) (* (- 1) (* z00 z y)) ?x1084)))
 (let ((?x583 (* 12 ?x568)))
 (let ((?x1134 (* (- 6) ?x285)))
 (let ((?x878 (+ (* 6 ?x607) ?x55 ?x1134 ?x583 (* (- 18) ?x805) ?x860 ?x67 (* 6 (* z00 z)) ?x861 ?x74 (* (- 1) (* z00 z00 z)))))
 (let (($x363 (and (= (+ z (* (- 1) z00) (* (- 6) n) (* 6 n00)) 0) (= (+ ?x285 ?x356 ?x45 ?x46 ?x355 ?x357) 0) (= ?x878 0) (= ?x732 0) (= ?x361 0) $x1294 $x1070)))
 (rewrite (= $x363 $x1015))))))))))))))))))))))))))))))))))))))))))))))))))))))))))))))))))))))))))))))))))))))))))))))))))))))))))))))))))))))))))))))
 ))
 (let (($x471 (exists ((x Int) (y Int) (z Int) (n Int) )(! (let ((?x49 (* 6 z00)))
 (let ((?x309 (* (- 12) y)))
 (let ((?x43 (* 12 y00)))
 (let ((?x285 (* z00 z00)))
 (let ((?x286 (* (- 1) ?x285)))
 (let ((?x1263 (+ (- 36) ?x286 ?x43 ?x309 (* (- 18) z) ?x49 (* (+ 6 z) (+ 6 z)))))
 (let ((?x223 (+ x y)))
 (let ((?x225 (* ?x223 ?x223)))
 (let ((?x215 (+ y z)))
 (let ((?x674 (+ 6 z)))
 (let ((?x1073 (* (- 1) (* ?x674 ?x674 ?x674 ?x215 ?x215 ?x223 ?x223 ?x223))))
 (let (($x1070 (not (= (* (+ ?x1073 ?x225) ?x1263) 0))))
 (let ((?x1210 (* x00 x00)))
 (let ((?x1211 (* 108 ?x1210)))
 (let ((?x196 (* y00 z00 z00 z00)))
 (let ((?x493 (* y00 y00)))
 (let ((?x964 (* 96 ?x493)))
 (let ((?x898 (* y00 y00 y00)))
 (let ((?x899 (* 16 ?x898)))
 (let ((?x769 (* (- 4) (* y y y))))
 (let ((?x716 (* x x)))
 (let ((?x717 (* 108 ?x716)))
 (let ((?x467 (* y y)))
 (let ((?x712 (* 24 ?x467)))
 (let ((?x1289 (+ (* 216 (* x00 y00)) (* 108 (* y x)) (* 36 (* x00 z00)) (* (- 2) (* z00 z00 z00 x)) (* 18 (* z00 z00 x)) (* (- 12) (* y00 y00 z00)) (* (- 1) (* y00 y00 z00 z00)) ?x712 ?x717 ?x769 (* 18 (* y00 z00 y)) (* 24 (* y00 z00)) (* (- 120) (* y00 y)) (* (- 24) (* z00 y)) ?x899 (* (- 6) (* z00 y y)) ?x964 (* (- 12) (* y00 y y)) (* (- 36) (* x00 y00 z00)) (* (- 108) (* x00 y)) (* (- 18) (* x00 z00 z00)) (* (- 216) (* x00 x)) ?x196 (* 2 (* x00 z00 z00 z00)) (* (- 216) (* y00 x)) (* z00 z00 y y) (* (- 10) (* y00 z00 z00)) (* (- 36) (* z00 x)) (* 36 (* y00 z00 x)) (* 10 (* z00 z00 y)) ?x1211 (* (- 1) (* z00 z00 z00 y)))))
 (let (($x1294 (= ?x1289 0)))
 (let ((?x251 (* y00 z y)))
 (let ((?x505 (* (- 108) x00)))
 (let ((?x71 (* 72 y)))
 (let ((?x448 (* (- 72) y00)))
 (let ((?x64 (* 108 x)))
 (let ((?x658 (* z y y)))
 (let ((?x440 (* x00 z)))
 (let ((?x443 (* 18 ?x440)))
 (let ((?x796 (* (- 36) ?x493)))
 (let ((?x607 (* z y)))
 (let ((?x869 (* (- 12) ?x607)))
 (let ((?x338 (* z00 y)))
 (let ((?x339 (* 6 ?x338)))
 (let ((?x805 (* y00 z00)))
 (let ((?x735 (* (- 6) ?x805)))
 (let ((?x568 (* y00 z)))
 (let ((?x583 (* 12 ?x568)))
 (let ((?x594 (* z x)))
 (let ((?x885 (* (- 18) ?x594)))
 (let ((?x1198 (+ (* (- 18) (* x00 y00)) (* (- 18) (* y x)) ?x885 (* (- 3) (* z00 z00 x)) (* (- 1) (* y00 y00 z00)) (* 3 (* x00 z00 z)) (* (- 1) (* y00 z00 y)) ?x583 ?x735 (* 36 (* y00 y)) ?x339 ?x869 (* (- 3) (* z00 z x)) (* 2 (* z00 y y)) ?x796 ?x443 ?x658 (* 18 (* x00 y)) (* 3 (* x00 z00 z00)) ?x64 ?x448 (* 18 (* y00 x)) ?x71 ?x505 ?x251 (* 3 (* y00 z00 z00)) (* (- 2) (* y00 y00 z)) (* (- 3) (* z00 z00 y)))))
 (let ((?x1167 (* z00 z y)))
 (let ((?x99 (* y00 z00 z00)))
 (let ((?x284 (* (- 6) ?x338)))
 (let ((?x446 (* 6 ?x805)))
 (let ((?x522 (* (- 24) ?x493)))
 (let ((?x470 (* 12 ?x467)))
 (let ((?x462 (+ (* (- 1) (* y00 z00 z)) ?x869 ?x885 (* 18 (* x00 z00)) ?x470 ?x522 ?x443 ?x583 ?x446 (* 12 (* y00 y)) ?x64 ?x448 ?x284 ?x71 ?x505 ?x99 (* (- 18) (* z00 x)) ?x1167 (* (- 1) (* z00 z00 y)))))
 (let ((?x623 (* z00 z00 z)))
 (let ((?x397 (* (- 12) ?x568)))
 (let ((?x389 (* 6 ?x285)))
 (let ((?x55 (* z00 z00 z00)))
 (let ((?x378 (* (- 1) ?x55)))
 (let ((?x557 (+ (* (- 6) ?x607) ?x378 ?x389 ?x397 (* 18 ?x805) ?x64 ?x448 (* (- 6) (* z00 z)) ?x71 ?x505 ?x623)))
 (and (= (+ (* (- 1) z) z00 (* 6 n) (* (- 6) n00)) 0) (= (+ ?x286 ?x43 ?x309 (* (- 6) z) ?x49 (* z z)) 0) (= ?x557 0) (= ?x462 0) (= ?x1198 0) $x1294 $x1070)))))))))))))))))))))))))))))))))))))))))))))))))))))))))))) :qid k!38))
 ))
 (let ((?x362 (lambda ((x Int) (y Int) (z Int) (n Int) )(let ((?x49 (* 6 z00)))
 (let ((?x309 (* (- 12) y)))
 (let ((?x43 (* 12 y00)))
 (let ((?x285 (* z00 z00)))
 (let ((?x286 (* (- 1) ?x285)))
 (let ((?x1263 (+ (- 36) ?x286 ?x43 ?x309 (* (- 18) z) ?x49 (* (+ 6 z) (+ 6 z)))))
 (let ((?x223 (+ x y)))
 (let ((?x225 (* ?x223 ?x223)))
 (let ((?x215 (+ y z)))
 (let ((?x674 (+ 6 z)))
 (let ((?x1073 (* (- 1) (* ?x674 ?x674 ?x674 ?x215 ?x215 ?x223 ?x223 ?x223))))
 (let (($x1070 (not (= (* (+ ?x1073 ?x225) ?x1263) 0))))
 (let ((?x1210 (* x00 x00)))
 (let ((?x1211 (* 108 ?x1210)))
 (let ((?x196 (* y00 z00 z00 z00)))
 (let ((?x493 (* y00 y00)))
 (let ((?x964 (* 96 ?x493)))
 (let ((?x898 (* y00 y00 y00)))
 (let ((?x899 (* 16 ?x898)))
 (let ((?x769 (* (- 4) (* y y y))))
 (let ((?x716 (* x x)))
 (let ((?x717 (* 108 ?x716)))
 (let ((?x467 (* y y)))
 (let ((?x712 (* 24 ?x467)))
 (let ((?x1289 (+ (* 216 (* x00 y00)) (* 108 (* y x)) (* 36 (* x00 z00)) (* (- 2) (* z00 z00 z00 x)) (* 18 (* z00 z00 x)) (* (- 12) (* y00 y00 z00)) (* (- 1) (* y00 y00 z00 z00)) ?x712 ?x717 ?x769 (* 18 (* y00 z00 y)) (* 24 (* y00 z00)) (* (- 120) (* y00 y)) (* (- 24) (* z00 y)) ?x899 (* (- 6) (* z00 y y)) ?x964 (* (- 12) (* y00 y y)) (* (- 36) (* x00 y00 z00)) (* (- 108) (* x00 y)) (* (- 18) (* x00 z00 z00)) (* (- 216) (* x00 x)) ?x196 (* 2 (* x00 z00 z00 z00)) (* (- 216) (* y00 x)) (* z00 z00 y y) (* (- 10) (* y00 z00 z00)) (* (- 36) (* z00 x)) (* 36 (* y00 z00 x)) (* 10 (* z00 z00 y)) ?x1211 (* (- 1) (* z00 z00 z00 y)))))
 (let (($x1294 (= ?x1289 0)))
 (let ((?x74 (* 108 x00)))
 (let ((?x861 (* (- 72) y)))
 (let ((?x67 (* 72 y00)))
 (let ((?x860 (* (- 108) x)))
 (let ((?x440 (* x00 z)))
 (let ((?x1139 (* (- 18) ?x440)))
 (let ((?x697 (* 36 ?x493)))
 (let ((?x607 (* z y)))
 (let ((?x553 (* 12 ?x607)))
 (let ((?x338 (* z00 y)))
 (let ((?x284 (* (- 6) ?x338)))
 (let ((?x805 (* y00 z00)))
 (let ((?x446 (* 6 ?x805)))
 (let ((?x568 (* y00 z)))
 (let ((?x397 (* (- 12) ?x568)))
 (let ((?x846 (* y00 z00 y)))
 (let ((?x113 (* y00 y00 z00)))
 (let ((?x594 (* z x)))
 (let ((?x1141 (* 18 ?x594)))
 (let ((?x361 (+ (* 18 (* x00 y00)) (* 18 (* y x)) ?x1141 (* 3 (* z00 z00 x)) ?x113 (* (- 3) (* x00 z00 z)) ?x846 ?x397 ?x446 (* (- 36) (* y00 y)) ?x284 ?x553 (* 3 (* z00 z x)) (* (- 2) (* z00 y y)) ?x697 ?x1139 (* (- 1) (* z y y)) (* (- 18) (* x00 y)) (* (- 3) (* x00 z00 z00)) ?x860 ?x67 (* (- 18) (* y00 x)) ?x861 ?x74 (* (- 1) (* y00 z y)) (* (- 3) (* y00 z00 z00)) (* 2 (* y00 y00 z)) (* 3 (* z00 z00 y)))))
 (let ((?x1084 (* z00 z00 y)))
 (let ((?x339 (* 6 ?x338)))
 (let ((?x735 (* (- 6) ?x805)))
 (let ((?x1114 (* 24 ?x493)))
 (let ((?x534 (* y00 z00 z)))
 (let ((?x732 (+ ?x534 ?x553 ?x1141 (* (- 18) (* x00 z00)) (* (- 12) ?x467) ?x1114 ?x1139 ?x397 ?x735 (* (- 12) (* y00 y)) ?x860 ?x67 ?x339 ?x861 ?x74 (* (- 1) (* y00 z00 z00)) (* 18 (* z00 x)) (* (- 1) (* z00 z y)) ?x1084)))
 (let ((?x583 (* 12 ?x568)))
 (let ((?x1134 (* (- 6) ?x285)))
 (let ((?x55 (* z00 z00 z00)))
 (let ((?x878 (+ (* 6 ?x607) ?x55 ?x1134 ?x583 (* (- 18) ?x805) ?x860 ?x67 (* 6 (* z00 z)) ?x861 ?x74 (* (- 1) (* z00 z00 z)))))
 (let ((?x50 (* z z)))
 (let ((?x357 (* (- 1) ?x50)))
 (let ((?x355 (* (- 6) z00)))
 (let ((?x46 (* 6 z)))
 (let ((?x45 (* 12 y)))
 (let ((?x356 (* (- 12) y00)))
 (let (($x363 (and (= (+ z (* (- 1) z00) (* (- 6) n) (* 6 n00)) 0) (= (+ ?x285 ?x356 ?x45 ?x46 ?x355 ?x357) 0) (= ?x878 0) (= ?x732 0) (= ?x361 0) $x1294 $x1070)))
 (let ((?x251 (* y00 z y)))
 (let ((?x505 (* (- 108) x00)))
 (let ((?x71 (* 72 y)))
 (let ((?x448 (* (- 72) y00)))
 (let ((?x64 (* 108 x)))
 (let ((?x658 (* z y y)))
 (let ((?x443 (* 18 ?x440)))
 (let ((?x796 (* (- 36) ?x493)))
 (let ((?x869 (* (- 12) ?x607)))
 (let ((?x885 (* (- 18) ?x594)))
 (let ((?x1198 (+ (* (- 18) (* x00 y00)) (* (- 18) (* y x)) ?x885 (* (- 3) (* z00 z00 x)) (* (- 1) ?x113) (* 3 (* x00 z00 z)) (* (- 1) ?x846) ?x583 ?x735 (* 36 (* y00 y)) ?x339 ?x869 (* (- 3) (* z00 z x)) (* 2 (* z00 y y)) ?x796 ?x443 ?x658 (* 18 (* x00 y)) (* 3 (* x00 z00 z00)) ?x64 ?x448 (* 18 (* y00 x)) ?x71 ?x505 ?x251 (* 3 (* y00 z00 z00)) (* (- 2) (* y00 y00 z)) (* (- 3) ?x1084))))
 (let ((?x1167 (* z00 z y)))
 (let ((?x99 (* y00 z00 z00)))
 (let ((?x522 (* (- 24) ?x493)))
 (let ((?x470 (* 12 ?x467)))
 (let ((?x462 (+ (* (- 1) ?x534) ?x869 ?x885 (* 18 (* x00 z00)) ?x470 ?x522 ?x443 ?x583 ?x446 (* 12 (* y00 y)) ?x64 ?x448 ?x284 ?x71 ?x505 ?x99 (* (- 18) (* z00 x)) ?x1167 (* (- 1) ?x1084))))
 (let ((?x623 (* z00 z00 z)))
 (let ((?x389 (* 6 ?x285)))
 (let ((?x378 (* (- 1) ?x55)))
 (let ((?x557 (+ (* (- 6) ?x607) ?x378 ?x389 ?x397 (* 18 ?x805) ?x64 ?x448 (* (- 6) (* z00 z)) ?x71 ?x505 ?x623)))
 (let (($x992 (and (= (+ (* (- 1) z) z00 (* 6 n) (* (- 6) n00)) 0) (= (+ ?x286 ?x43 ?x309 (* (- 6) z) ?x49 ?x50) 0) (= ?x557 0) (= ?x462 0) (= ?x1198 0) $x1294 $x1070)))
 (rewrite (= $x992 $x363)))))))))))))))))))))))))))))))))))))))))))))))))))))))))))))))))))))))))))))))))))))))
 ))
 (let (($x232 (exists ((x Int) (y Int) (z Int) (n Int) )(! (let ((?x223 (+ x y)))
 (let ((?x225 (* ?x223 ?x223)))
 (let ((?x217 (+ z 6)))
 (let ((?x215 (+ y z)))
 (let ((?x29 (- 1)))
 (let ((?x49 (* 6 z00)))
 (let ((?x220 (- (- (+ (* ?x29 z00 z00) (* 12 y00)) (* 12 ?x215)) (* 6 ?x217))))
 (let ((?x227 (* (+ ?x220 ?x49 (* ?x217 ?x217)) (+ (* ?x29 ?x223 ?x223 ?x223 ?x215 ?x215 ?x217 ?x217 ?x217) ?x225))))
 (let ((?x212 (* y z00 z00 z00)))
 (let ((?x201 (* y y z00 z00)))
 (let ((?x196 (* y00 z00 z00 z00)))
 (let ((?x161 (* y00 y00 z00 z00)))
 (let ((?x157 (- (+ (* 216 x00 y00) (* 108 x y) (* 36 x00 z00)) (* 2 x z00 z00 z00))))
 (let ((?x163 (- (- (+ ?x157 (* 18 x z00 z00)) (* 12 y00 y00 z00)) ?x161)))
 (let ((?x169 (- (+ ?x163 (* 24 y y) (* 108 x x)) (* 4 y y y))))
 (let ((?x176 (- (+ ?x169 (* 18 y y00 z00) (* 24 y00 z00)) (* 120 y y00))))
 (let ((?x182 (- (+ (- ?x176 (* 24 y z00)) (* 16 y00 y00 y00)) (* 6 y y z00))))
 (let ((?x192 (- (- (+ ?x182 (* 96 y00 y00)) (* 12 y y y00)) (* 36 x00 y00 z00))))
 (let ((?x195 (- (- (- ?x192 (* 108 x00 y)) (* 18 x00 z00 z00)) (* 216 x x00))))
 (let ((?x200 (- (+ ?x195 ?x196 (* 2 x00 z00 z00 z00)) (* 216 x y00))))
 (let ((?x207 (- (- (+ ?x200 ?x201) (* 10 y00 z00 z00)) (* 36 x z00))))
 (let ((?x211 (+ ?x207 (* 36 x y00 z00) (* 10 y z00 z00) (* 108 x00 x00))))
 (let ((?x74 (* 108 x00)))
 (let ((?x71 (* 72 y)))
 (let ((?x67 (* 72 y00)))
 (let ((?x64 (* 108 x)))
 (let ((?x135 (* y y z)))
 (let ((?x90 (* 18 x00 z)))
 (let ((?x80 (* 12 y z)))
 (let ((?x94 (* 6 y z00)))
 (let ((?x91 (* 6 y00 z00)))
 (let ((?x59 (* 12 y00 z)))
 (let ((?x113 (* y00 y00 z00)))
 (let ((?x81 (* 18 x z)))
 (let ((?x116 (- (- (- (* (- 18) x00 y00) (* 18 x y)) ?x81) (* 3 x z00 z00))))
 (let ((?x121 (- (+ (- ?x116 ?x113) (* 3 x00 z z00)) (* y y00 z00))))
 (let ((?x129 (- (- (+ (- (+ ?x121 ?x59) ?x91) (* 36 y y00) ?x94) ?x80) (* 3 x z z00))))
 (let ((?x138 (+ (- (+ ?x129 (* 2 y y z00)) (* 36 y00 y00)) ?x90 ?x135 (* 18 x00 y) (* 3 x00 z00 z00) ?x64)))
 (let ((?x145 (+ (- (+ (- ?x138 ?x67) (* 18 x y00) ?x71) ?x74) (* y y00 z) (* 3 y00 z00 z00))))
 (let (($x150 (= (- (- ?x145 (* 2 y00 y00 z)) (* 3 y z00 z00)) 0)))
 (let ((?x105 (* y z00 z00)))
 (let ((?x103 (* y z z00)))
 (let ((?x99 (* y00 z00 z00)))
 (let ((?x86 (+ (- (- (* ?x29 y00 z z00) ?x80) ?x81) (* 18 x00 z00) (* 12 y y))))
 (let ((?x93 (+ (- ?x86 (* 24 y00 y00)) ?x90 ?x59 ?x91 (* 12 y y00) ?x64)))
 (let ((?x102 (- (+ (- (+ (- (- ?x93 ?x67) ?x94) ?x71) ?x74) ?x99) (* 18 x z00))))
 (let ((?x76 (* z z00 z00)))
 (let ((?x58 (+ (- (* (- 6) y z) (* z00 z00 z00)) (* 6 z00 z00))))
 (let ((?x70 (- (- (+ (- ?x58 ?x59) (* 18 y00 z00) ?x64) ?x67) (* 6 z z00))))
 (let ((?x50 (* z z)))
 (let ((?x46 (* 6 z)))
 (let ((?x48 (- (- (+ (* ?x29 z00 z00) (* 12 y00)) (* 12 y)) ?x46)))
 (let (($x39 (= (- (+ (* ?x29 z) z00 (* 6 n)) (* 6 n00)) 0)))
 (and $x39 (= (+ ?x48 ?x49 ?x50) 0) (= (+ (- (+ ?x70 ?x71) ?x74) ?x76) 0) (= (- (+ ?x102 ?x103) ?x105) 0) $x150 (= (- ?x211 ?x212) 0) (or (not (= ?x227 0))))))))))))))))))))))))))))))))))))))))))))))))))))))))) :qid k!38))
 ))
 (let ((?x487 (lambda ((x Int) (y Int) (z Int) (n Int) )(let ((?x49 (* 6 z00)))
 (let ((?x309 (* (- 12) y)))
 (let ((?x43 (* 12 y00)))
 (let ((?x285 (* z00 z00)))
 (let ((?x286 (* (- 1) ?x285)))
 (let ((?x1263 (+ (- 36) ?x286 ?x43 ?x309 (* (- 18) z) ?x49 (* (+ 6 z) (+ 6 z)))))
 (let ((?x223 (+ x y)))
 (let ((?x225 (* ?x223 ?x223)))
 (let ((?x215 (+ y z)))
 (let ((?x674 (+ 6 z)))
 (let ((?x1073 (* (- 1) (* ?x674 ?x674 ?x674 ?x215 ?x215 ?x223 ?x223 ?x223))))
 (let (($x1070 (not (= (* (+ ?x1073 ?x225) ?x1263) 0))))
 (let ((?x1210 (* x00 x00)))
 (let ((?x1211 (* 108 ?x1210)))
 (let ((?x196 (* y00 z00 z00 z00)))
 (let ((?x493 (* y00 y00)))
 (let ((?x964 (* 96 ?x493)))
 (let ((?x898 (* y00 y00 y00)))
 (let ((?x899 (* 16 ?x898)))
 (let ((?x769 (* (- 4) (* y y y))))
 (let ((?x716 (* x x)))
 (let ((?x717 (* 108 ?x716)))
 (let ((?x467 (* y y)))
 (let ((?x712 (* 24 ?x467)))
 (let ((?x1289 (+ (* 216 (* x00 y00)) (* 108 (* y x)) (* 36 (* x00 z00)) (* (- 2) (* z00 z00 z00 x)) (* 18 (* z00 z00 x)) (* (- 12) (* y00 y00 z00)) (* (- 1) (* y00 y00 z00 z00)) ?x712 ?x717 ?x769 (* 18 (* y00 z00 y)) (* 24 (* y00 z00)) (* (- 120) (* y00 y)) (* (- 24) (* z00 y)) ?x899 (* (- 6) (* z00 y y)) ?x964 (* (- 12) (* y00 y y)) (* (- 36) (* x00 y00 z00)) (* (- 108) (* x00 y)) (* (- 18) (* x00 z00 z00)) (* (- 216) (* x00 x)) ?x196 (* 2 (* x00 z00 z00 z00)) (* (- 216) (* y00 x)) (* z00 z00 y y) (* (- 10) (* y00 z00 z00)) (* (- 36) (* z00 x)) (* 36 (* y00 z00 x)) (* 10 (* z00 z00 y)) ?x1211 (* (- 1) (* z00 z00 z00 y)))))
 (let (($x1294 (= ?x1289 0)))
 (let ((?x251 (* y00 z y)))
 (let ((?x505 (* (- 108) x00)))
 (let ((?x71 (* 72 y)))
 (let ((?x448 (* (- 72) y00)))
 (let ((?x64 (* 108 x)))
 (let ((?x658 (* z y y)))
 (let ((?x440 (* x00 z)))
 (let ((?x443 (* 18 ?x440)))
 (let ((?x796 (* (- 36) ?x493)))
 (let ((?x607 (* z y)))
 (let ((?x869 (* (- 12) ?x607)))
 (let ((?x338 (* z00 y)))
 (let ((?x339 (* 6 ?x338)))
 (let ((?x805 (* y00 z00)))
 (let ((?x735 (* (- 6) ?x805)))
 (let ((?x568 (* y00 z)))
 (let ((?x583 (* 12 ?x568)))
 (let ((?x594 (* z x)))
 (let ((?x885 (* (- 18) ?x594)))
 (let ((?x1198 (+ (* (- 18) (* x00 y00)) (* (- 18) (* y x)) ?x885 (* (- 3) (* z00 z00 x)) (* (- 1) (* y00 y00 z00)) (* 3 (* x00 z00 z)) (* (- 1) (* y00 z00 y)) ?x583 ?x735 (* 36 (* y00 y)) ?x339 ?x869 (* (- 3) (* z00 z x)) (* 2 (* z00 y y)) ?x796 ?x443 ?x658 (* 18 (* x00 y)) (* 3 (* x00 z00 z00)) ?x64 ?x448 (* 18 (* y00 x)) ?x71 ?x505 ?x251 (* 3 (* y00 z00 z00)) (* (- 2) (* y00 y00 z)) (* (- 3) (* z00 z00 y)))))
 (let ((?x1167 (* z00 z y)))
 (let ((?x99 (* y00 z00 z00)))
 (let ((?x284 (* (- 6) ?x338)))
 (let ((?x446 (* 6 ?x805)))
 (let ((?x522 (* (- 24) ?x493)))
 (let ((?x470 (* 12 ?x467)))
 (let ((?x462 (+ (* (- 1) (* y00 z00 z)) ?x869 ?x885 (* 18 (* x00 z00)) ?x470 ?x522 ?x443 ?x583 ?x446 (* 12 (* y00 y)) ?x64 ?x448 ?x284 ?x71 ?x505 ?x99 (* (- 18) (* z00 x)) ?x1167 (* (- 1) (* z00 z00 y)))))
 (let ((?x623 (* z00 z00 z)))
 (let ((?x397 (* (- 12) ?x568)))
 (let ((?x389 (* 6 ?x285)))
 (let ((?x55 (* z00 z00 z00)))
 (let ((?x378 (* (- 1) ?x55)))
 (let ((?x557 (+ (* (- 6) ?x607) ?x378 ?x389 ?x397 (* 18 ?x805) ?x64 ?x448 (* (- 6) (* z00 z)) ?x71 ?x505 ?x623)))
 (let (($x992 (and (= (+ (* (- 1) z) z00 (* 6 n) (* (- 6) n00)) 0) (= (+ ?x286 ?x43 ?x309 (* (- 6) z) ?x49 (* z z)) 0) (= ?x557 0) (= ?x462 0) (= ?x1198 0) $x1294 $x1070)))
 (let ((?x217 (+ z 6)))
 (let ((?x29 (- 1)))
 (let ((?x220 (- (- (+ (* ?x29 z00 z00) ?x43) (* 12 ?x215)) (* 6 ?x217))))
 (let ((?x227 (* (+ ?x220 ?x49 (* ?x217 ?x217)) (+ (* ?x29 ?x223 ?x223 ?x223 ?x215 ?x215 ?x217 ?x217 ?x217) ?x225))))
 (let ((?x212 (* y z00 z00 z00)))
 (let ((?x201 (* y y z00 z00)))
 (let ((?x161 (* y00 y00 z00 z00)))
 (let ((?x157 (- (+ (* 216 x00 y00) (* 108 x y) (* 36 x00 z00)) (* 2 x z00 z00 z00))))
 (let ((?x163 (- (- (+ ?x157 (* 18 x z00 z00)) (* 12 y00 y00 z00)) ?x161)))
 (let ((?x169 (- (+ ?x163 (* 24 y y) (* 108 x x)) (* 4 y y y))))
 (let ((?x176 (- (+ ?x169 (* 18 y y00 z00) (* 24 y00 z00)) (* 120 y y00))))
 (let ((?x182 (- (+ (- ?x176 (* 24 y z00)) (* 16 y00 y00 y00)) (* 6 y y z00))))
 (let ((?x192 (- (- (+ ?x182 (* 96 y00 y00)) (* 12 y y y00)) (* 36 x00 y00 z00))))
 (let ((?x195 (- (- (- ?x192 (* 108 x00 y)) (* 18 x00 z00 z00)) (* 216 x x00))))
 (let ((?x200 (- (+ ?x195 ?x196 (* 2 x00 z00 z00 z00)) (* 216 x y00))))
 (let ((?x207 (- (- (+ ?x200 ?x201) (* 10 y00 z00 z00)) (* 36 x z00))))
 (let ((?x211 (+ ?x207 (* 36 x y00 z00) (* 10 y z00 z00) (* 108 x00 x00))))
 (let ((?x74 (* 108 x00)))
 (let ((?x67 (* 72 y00)))
 (let ((?x135 (* y y z)))
 (let ((?x90 (* 18 x00 z)))
 (let ((?x80 (* 12 y z)))
 (let ((?x94 (* 6 y z00)))
 (let ((?x91 (* 6 y00 z00)))
 (let ((?x59 (* 12 y00 z)))
 (let ((?x113 (* y00 y00 z00)))
 (let ((?x81 (* 18 x z)))
 (let ((?x116 (- (- (- (* (- 18) x00 y00) (* 18 x y)) ?x81) (* 3 x z00 z00))))
 (let ((?x121 (- (+ (- ?x116 ?x113) (* 3 x00 z z00)) (* y y00 z00))))
 (let ((?x129 (- (- (+ (- (+ ?x121 ?x59) ?x91) (* 36 y y00) ?x94) ?x80) (* 3 x z z00))))
 (let ((?x138 (+ (- (+ ?x129 (* 2 y y z00)) (* 36 y00 y00)) ?x90 ?x135 (* 18 x00 y) (* 3 x00 z00 z00) ?x64)))
 (let ((?x145 (+ (- (+ (- ?x138 ?x67) (* 18 x y00) ?x71) ?x74) (* y y00 z) (* 3 y00 z00 z00))))
 (let (($x150 (= (- (- ?x145 (* 2 y00 y00 z)) (* 3 y z00 z00)) 0)))
 (let ((?x105 (* y z00 z00)))
 (let ((?x103 (* y z z00)))
 (let ((?x86 (+ (- (- (* ?x29 y00 z z00) ?x80) ?x81) (* 18 x00 z00) (* 12 y y))))
 (let ((?x93 (+ (- ?x86 (* 24 y00 y00)) ?x90 ?x59 ?x91 (* 12 y y00) ?x64)))
 (let ((?x102 (- (+ (- (+ (- (- ?x93 ?x67) ?x94) ?x71) ?x74) ?x99) (* 18 x z00))))
 (let ((?x76 (* z z00 z00)))
 (let ((?x60 (- (+ (- (* (- 6) y z) ?x55) (* 6 z00 z00)) ?x59)))
 (let ((?x70 (- (- (+ ?x60 (* 18 y00 z00) ?x64) ?x67) (* 6 z z00))))
 (let ((?x50 (* z z)))
 (let ((?x46 (* 6 z)))
 (let ((?x51 (+ (- (- (+ (* ?x29 z00 z00) ?x43) (* 12 y)) ?x46) ?x49 ?x50)))
 (let (($x39 (= (- (+ (* ?x29 z) z00 (* 6 n)) (* 6 n00)) 0)))
 (let (($x231 (and $x39 (= ?x51 0) (= (+ (- (+ ?x70 ?x71) ?x74) ?x76) 0) (= (- (+ ?x102 ?x103) ?x105) 0) $x150 (= (- ?x211 ?x212) 0) (or (not (= ?x227 0))))))
 (rewrite (= $x231 $x992)))))))))))))))))))))))))))))))))))))))))))))))))))))))))))))))))))))))))))))))))))))))))))))))))))))))))))))
 ))
 (let ((@x233 (asserted $x232)))
 (let ((@x1291 (mp (mp @x233 (quant-intro (proof-bind ?x487) (= $x232 $x471)) $x471) (rewrite (= $x471 $x471)) $x471)))
 (let ((@x1128 (mp (mp @x1291 (quant-intro (proof-bind ?x362) (= $x471 $x349)) $x349) (quant-intro (proof-bind ?x580) (= $x349 $x579)) $x579)))
 (let ((@x1264 (mp (mp~ @x1128 (sk (~ $x579 $x438)) $x438) (rewrite (= $x438 $x301)) $x301)))
 (let ((@x626 (and-elim @x1264 $x611)))
 (let ((@x787 (unit-resolution ((_ th-lemma arith triangle-eq) (or (not $x611) $x315)) @x626 $x315)))
 (let (($x326 (>= ?x705 0)))
 (let ((@x884 (unit-resolution ((_ th-lemma arith triangle-eq) (or (not $x611) $x326)) @x626 $x326)))
 (let (($x625 (not (<= ?x1192 0))))
 (let (($x409 (>= ?x1192 0)))
 (let ((@x794 (unit-resolution ((_ th-lemma arith triangle-eq) (or $x307 $x625 (not $x409))) (and-elim @x1264 $x723) (or $x625 (not $x409)))))
 (let ((@x755 (unit-resolution @x794 (lemma ((_ th-lemma arith farkas 1 1 1) (hypothesis (not $x409)) @x884 @x787 false) $x409) $x625)))
 ((_ th-lemma arith farkas 1 1 1) @x755 @x884 @x787 false)))))))))))))))))))))))))))))))))))))))))))))))))))))))))))))))))))))))))))))))))))))))))))))))))))))))))))))))))))))))))

(:added-eqs                 6
 :arith-assert-diseq        1
 :arith-assert-lower        10
 :arith-assert-upper        9
 :arith-conflicts           2
 :arith-eq-adapter          7
 :arith-num-rows            10
 :arith-pseudo-nonlinear    2
 :arith-tableau-max-columns 95
 :arith-tableau-max-rows    10
 :conflicts                 2
 :decisions                 1
 :del-clause                20
 :max-memory                3.89
 :memory                    3.27
 :mk-bool-var               27
 :mk-clause                 22
 :num-allocs                1309701
 :num-checks                1
 :propagations              14
 :rlimit-count              7182
 :time                      0.01
 :total-time                0.02)
